(declare-const p3 Real)
(declare-const p4 Real)
(declare-const fee_bl Real)
(declare-const p1 Real)
(declare-const p2 Real)
(declare-const income Real)
(assert (= p1 (* 0.035 (ite (> income 19580) 19580 income))))
(assert (= p2 (ite (> income 19580) (* 0.044 (- (ite (> income 39150) 39150 income) 19580)) 0)))
(assert (= p3 (ite (> income 39150) (* 0.053 (- (ite (> income 431060) 431060 income) 39150)) 0)))
(assert (= p4 (ite (> income 431060) (* 0.0765 (- income 431060)) 0)))
(assert (= fee_bl (+ (+ (+ p1 p2) p3) p4)))